(set-info :smt-lib-version 2.6)
(set-logic QF_LIA)
(set-info :category "industrial")
(set-info :status sat)
(declare-fun x0 () Int)
(declare-fun x1 () Int)
(declare-fun x10 () Int)
(declare-fun x11 () Int)
(declare-fun x12 () Int)
(declare-fun x13 () Int)
(declare-fun x14 () Int)
(declare-fun x15 () Int)
(declare-fun x16 () Int)
(declare-fun x17 () Int)
(declare-fun x18 () Int)
(declare-fun x19 () Int)
(declare-fun x2 () Int)
(declare-fun x20 () Int)
(declare-fun x21 () Int)
(declare-fun x22 () Int)
(declare-fun x23 () Int)
(declare-fun x24 () Int)
(declare-fun x25 () Int)
(declare-fun x26 () Int)
(declare-fun x27 () Int)
(declare-fun x28 () Int)
(declare-fun x29 () Int)
(declare-fun x3 () Int)
(declare-fun x30 () Int)
(declare-fun x31 () Int)
(declare-fun x32 () Int)
(declare-fun x33 () Int)
(declare-fun x34 () Int)
(declare-fun x35 () Int)
(declare-fun x36 () Int)
(declare-fun x37 () Int)
(declare-fun x38 () Int)
(declare-fun x39 () Int)
(declare-fun x4 () Int)
(declare-fun x5 () Int)
(declare-fun x6 () Int)
(declare-fun x7 () Int)
(declare-fun x8 () Int)
(declare-fun x9 () Int)
(assert (let ((?v_0 (* 0 x10)) (?v_54 (* 0 x12)) (?v_38 (* 1 x16)) (?v_95 (* 1 x17)) (?v_73 (* 1 x18)) (?v_23 (* 0 x2)) (?v_5 (* 0 x24)) (?v_26 (* 0 x27)) (?v_6 (* 0 x34)) (?v_48 (* 1 x25)) (?v_17 (* 0 x28)) (?v_8 (* 0 x37)) (?v_3 (* 0 x38)) (?v_116 (* 1 x4)) (?v_34 (* 1 x8)) (?v_4 (* 0 x9))) (let ((?v_62 (+ ?v_34 ?v_4)) (?v_42 (* 0 x15)) (?v_88 (* 0 x16)) (?v_21 (* 0 x18)) (?v_14 (* 0 x23)) (?v_10 (* 1 x0)) (?v_11 (* 1 x14)) (?v_40 (* 0 x20)) (?v_16 (* 0 x25)) (?v_67 (* 0 x26)) (?v_59 (* 0 x31)) (?v_115 (* 1 x32)) (?v_7 (* 0 x35)) (?v_61 (* 0 x6)) (?v_28 (* 1 x21)) (?v_49 (* 1 x33)) (?v_43 (* 1 x13)) (?v_93 (* 1 x19)) (?v_82 (* 1 x26)) (?v_106 (* 1 x27)) (?v_31 (* 1 x31)) (?v_47 (* 0 x32)) (?v_50 (* 0 x39)) (?v_18 (* 0 x8)) (?v_105 (* 1 x2)) (?v_52 (* 1 x9)) (?v_89 (* 2 x21)) (?v_19 (* 1 x5)) (?v_51 (* 1 x6))) (let ((?v_119 (+ ?v_19 ?v_51)) (?v_84 (* 0 x1)) (?v_37 (* 0 x17)) (?v_22 (* 0 x19)) (?v_100 (* 2 x26)) (?v_29 (* 0 x29)) (?v_58 (* 0 x3)) (?v_30 (* 0 x30)) (?v_32 (* 0 x33)) (?v_33 (* 0 x7)) (?v_41 (* 0 x0)) (?v_35 (* 0 x11)) (?v_63 (* 1 x12)) (?v_36 (* 0 x13)) (?v_81 (* 1 x24)) (?v_68 (* 1 x37)) (?v_86 (* 0 x4)) (?v_55 (* 0 x21)) (?v_74 (* 0 x36)) (?v_60 (* 0 x5)) (?v_79 (* 1 x11)) (?v_75 (* 1 x20)) (?v_83 (* 1 x29)) (?v_78 (* 1 x38)) (?v_94 (* 0 x22)) (?v_85 (* 1 x15)) (?v_112 (* 1 x22)) (?v_91 (* 1 x36)) (?v_90 (* 1 x35)) (?v_118 (* 1 x28)) (?v_108 (* 1 x10)) (?v_101 (* 1 x3)) (?v_107 (* 1 x30)) (?v_117 (* 1 x23)) (?v_69 (* (- 1) x0)) (?v_113 (* (- 1) x11)) (?v_9 (* (- 1) x13)) (?v_20 (* (- 1) x15)) (?v_1 (* (- 1) x19)) (?v_25 (* (- 1) x26)) (?v_2 (* (- 1) x29)) (?v_120 (* (- 1) x30)) (?v_39 (* (- 1) x31)) (?v_65 (* (- 1) x32)) (?v_56 (* (- 1) x36)) (?v_27 (* (- 1) x6)) (?v_102 (* (- 1) x12)) (?v_13 (* (- 1) x22)) (?v_12 (* (- 1) x2)) (?v_15 (* (- 1) x24)) (?v_103 (* (- 1) x18)) (?v_57 (* (- 1) x7)) (?v_64 (* (- 1) x25)) (?v_44 (* (- 2) x3)) (?v_109 (* (- 1) x33)) (?v_92 (* (- 2) x31)) (?v_24 (* (- 1) x20)) (?v_104 (* (- 1) x21)) (?v_97 (* (- 1) x34)) (?v_77 (* (- 1) x39)) (?v_46 (* (- 1) x35)) (?v_45 (* (- 1) x28)) (?v_53 (* (- 1) x1)) (?v_71 (* (- 1) x16)) (?v_96 (* (- 2) x24)) (?v_66 (* (- 1) x38)) (?v_87 (* (- 1) x8)) (?v_76 (* (- 2) x11)) (?v_70 (* (- 1) x10)) (?v_114 (* (- 2) x8)) (?v_72 (* (- 1) x17)) (?v_99 (* (- 1) x9)) (?v_111 (* (- 1) x14)) (?v_80 (* (- 1) x3)) (?v_98 (* (- 1) x4)) (?v_110 (* (- 2) x36))) (and (<= (+ ?v_69 (+ ?v_113 (+ ?v_0 (+ ?v_54 (+ ?v_9 (+ ?v_20 (+ ?v_38 (+ ?v_95 (+ ?v_73 (+ ?v_1 (+ ?v_23 (+ (* (- 2) x20) (+ ?v_25 (+ ?v_2 (+ ?v_120 (+ ?v_39 (+ ?v_65 (+ ?v_5 (+ ?v_26 (+ ?v_6 (+ ?v_48 (+ ?v_56 (+ ?v_27 (+ ?v_17 (+ ?v_8 (+ ?v_3 (+ ?v_116 ?v_62))))))))))))))))))))))))))) 0) (<= (+ ?v_0 (+ ?v_102 (+ ?v_42 (+ ?v_88 (+ ?v_21 (+ ?v_1 (+ ?v_13 (+ ?v_14 (+ ?v_10 (+ ?v_11 (+ ?v_12 (+ ?v_15 (+ (* (- 2) x28) (+ ?v_2 (+ (* (- 1) x37) (+ ?v_40 (+ ?v_16 (+ ?v_67 (+ ?v_59 (+ ?v_115 (+ ?v_7 (+ ?v_3 (+ ?v_61 (+ ?v_4 (+ ?v_28 ?v_49))))))))))))))))))))))))) (- 1)) (<= (+ ?v_103 (+ ?v_57 (+ ?v_0 (+ ?v_64 (+ ?v_43 (+ (* 2 x16) (+ ?v_93 (+ ?v_5 (+ ?v_82 (+ ?v_106 (+ ?v_31 (+ ?v_47 (+ ?v_6 (+ ?v_7 (+ ?v_8 (+ ?v_50 (+ ?v_18 (+ ?v_105 (+ ?v_52 (+ ?v_89 (+ ?v_44 (+ ?v_109 (+ ?v_3 ?v_119))))))))))))))))))))))) (- 1)) (<= (+ ?v_92 (+ ?v_84 (+ ?v_9 (+ ?v_37 (+ ?v_22 (+ ?v_10 (+ ?v_11 (+ ?v_12 (+ ?v_24 (+ ?v_104 (+ ?v_13 (+ ?v_14 (+ ?v_15 (+ ?v_97 (+ ?v_77 (+ ?v_16 (+ ?v_100 (+ ?v_17 (+ ?v_29 (+ ?v_58 (+ ?v_30 (+ ?v_32 (+ ?v_8 (+ ?v_3 (+ ?v_33 (+ ?v_18 ?v_19)))))))))))))))))))))))))) 1) (<= (+ (* (- 2) x37) (+ ?v_20 (+ ?v_41 (+ ?v_35 (+ ?v_63 (+ ?v_36 (+ ?v_21 (+ ?v_22 (+ ?v_23 (+ ?v_24 (+ ?v_14 (+ ?v_25 (+ ?v_26 (+ ?v_46 (+ ?v_27 (+ ?v_28 (+ ?v_81 (+ ?v_17 (+ ?v_29 (+ ?v_30 (+ ?v_31 (+ ?v_32 (+ ?v_33 (+ ?v_34 (+ ?v_4 ?v_19))))))))))))))))))))))))) (- 1)) (<= (+ (* (- 2) x10) (+ ?v_35 (+ ?v_20 (+ ?v_36 (+ ?v_37 (+ ?v_38 (+ ?v_22 (+ (* 2 x0) (+ ?v_12 (+ ?v_13 (+ ?v_14 (+ ?v_15 (+ ?v_16 (+ ?v_26 (+ ?v_45 (+ ?v_39 (+ ?v_40 (+ ?v_29 (+ ?v_30 (+ ?v_68 (+ ?v_3 (+ ?v_86 (+ ?v_33 (+ ?v_18 ?v_4)))))))))))))))))))))))) 0) (<= (+ ?v_53 (+ ?v_71 (+ ?v_1 (+ ?v_41 (+ ?v_42 (+ ?v_43 (+ ?v_11 (+ ?v_96 (+ ?v_12 (+ ?v_25 (+ ?v_44 (+ ?v_45 (+ ?v_46 (+ ?v_66 (+ ?v_87 (+ ?v_40 (+ ?v_55 (+ ?v_30 (+ ?v_47 (+ ?v_48 (+ ?v_49 (+ ?v_74 (+ ?v_50 (+ ?v_60 (+ ?v_51 ?v_52))))))))))))))))))))))))) 1) (<= (+ ?v_76 (+ ?v_53 (+ ?v_70 (+ ?v_54 (+ ?v_36 (+ ?v_26 (+ ?v_38 (+ ?v_22 (+ (* 2 x23) (+ ?v_15 (+ ?v_55 (+ ?v_16 (+ ?v_45 (+ ?v_56 (+ ?v_57 (+ ?v_58 (+ ?v_30 (+ ?v_59 (+ ?v_47 (+ ?v_6 (+ ?v_3 (+ ?v_50 (+ ?v_60 (+ ?v_61 ?v_62)))))))))))))))))))))))) (- 1)) (<= (+ ?v_79 (+ ?v_63 (+ ?v_114 (+ ?v_20 (+ ?v_72 (+ ?v_38 (+ ?v_64 (+ ?v_39 (+ ?v_65 (+ ?v_66 (+ ?v_99 (+ ?v_41 (+ ?v_22 (+ ?v_67 (+ ?v_26 (+ ?v_45 (+ ?v_6 (+ ?v_50 (+ ?v_33 (+ ?v_75 (+ ?v_83 (+ ?v_49 (+ ?v_68 (* 2 x36)))))))))))))))))))))))) 1) (<= (+ (* (- 2) x27) (+ (* (- 2) x32) (+ ?v_69 (+ ?v_70 (+ ?v_35 (+ ?v_54 (+ (* 1 x1) (+ ?v_71 (+ ?v_72 (+ ?v_73 (+ (* 2 x14) (+ ?v_23 (+ ?v_55 (+ ?v_14 (+ ?v_45 (+ ?v_39 (+ ?v_30 (+ ?v_46 (+ ?v_49 (+ ?v_74 (+ ?v_50 (+ ?v_61 (+ ?v_18 (+ ?v_75 ?v_78)))))))))))))))))))))))) 0) (<= (+ ?v_76 (+ ?v_63 (+ (* 2 x1) (+ (* 2 x10) (+ ?v_36 (+ (* (- 2) x19) (+ ?v_111 (+ ?v_42 (+ ?v_23 (+ ?v_94 (+ ?v_14 (+ ?v_26 (+ ?v_29 (+ ?v_48 (+ ?v_80 (+ ?v_65 (+ ?v_6 (+ ?v_56 (+ ?v_77 (+ ?v_98 (+ ?v_61 (+ ?v_4 ?v_78)))))))))))))))))))))) (- 1)) (<= (+ ?v_53 (+ ?v_70 (+ ?v_71 (+ ?v_41 (+ ?v_79 (+ ?v_37 (+ ?v_21 (+ ?v_63 (+ ?v_85 (+ ?v_12 (+ ?v_26 (+ ?v_80 (+ ?v_6 (+ ?v_50 (+ ?v_61 (+ ?v_75 (+ ?v_112 (+ ?v_81 (+ ?v_48 (+ ?v_82 (+ ?v_83 (+ ?v_52 (+ (* 2 x35) (+ ?v_91 (* 2 x7))))))))))))))))))))))))) 1) (<= (+ ?v_84 (+ ?v_0 (+ ?v_35 (+ ?v_54 (+ ?v_21 (+ ?v_14 (+ ?v_26 (+ ?v_29 (+ (* (- 2) x6) (+ ?v_11 (+ ?v_85 (+ ?v_23 (+ ?v_81 (+ (* (- 3) x33) (+ ?v_90 (+ ?v_56 (+ ?v_77 (+ ?v_58 (+ ?v_68 (+ ?v_3 (+ ?v_86 (+ (* (- 1) x5) (+ ?v_87 ?v_118))))))))))))))))))))))) (- 1)) (<= (+ ?v_53 (+ ?v_108 (+ ?v_54 (+ ?v_9 (+ (* (- 2) x14) (+ ?v_1 (+ ?v_64 (+ ?v_25 (+ ?v_77 (+ ?v_41 (+ ?v_88 (+ ?v_12 (+ ?v_40 (+ ?v_14 (+ ?v_26 (+ ?v_81 (+ ?v_89 (+ ?v_17 (+ ?v_30 (+ ?v_32 (+ ?v_6 (+ ?v_33 (+ ?v_90 (+ ?v_91 ?v_51)))))))))))))))))))))))) (- 1)) (<= (+ ?v_92 (+ ?v_70 (+ ?v_35 (+ ?v_71 (+ ?v_77 (+ ?v_87 (+ ?v_42 (+ ?v_46 (+ ?v_10 (+ ?v_43 (+ ?v_11 (+ (* 2 x18) (+ ?v_93 (+ ?v_40 (+ ?v_94 (+ ?v_14 (+ ?v_82 (+ ?v_30 (+ ?v_47 (+ ?v_6 (+ ?v_86 (+ ?v_33 (+ ?v_4 (+ ?v_28 (+ ?v_101 (+ ?v_91 (+ (* 3 x38) ?v_19))))))))))))))))))))))))))) 1) (<= (+ ?v_69 (+ ?v_70 (+ ?v_63 (+ ?v_71 (+ (* 0 x14) (+ ?v_95 (+ ?v_21 (+ ?v_96 (+ ?v_97 (+ ?v_77 (+ ?v_98 (+ ?v_99 (+ ?v_28 (+ ?v_48 (+ ?v_100 (+ ?v_17 (+ ?v_107 (+ (* 2 x32) (+ ?v_32 (+ ?v_7 (+ ?v_74 (+ ?v_101 (+ ?v_60 (+ ?v_18 (+ ?v_75 ?v_51))))))))))))))))))))))))) 1) (<= (+ (* (- 2) x34) (+ ?v_102 (+ ?v_103 (+ ?v_84 (+ ?v_0 (+ ?v_36 (+ ?v_42 (+ ?v_88 (+ ?v_37 (+ ?v_22 (+ ?v_11 (+ ?v_104 (+ ?v_94 (+ ?v_64 (+ ?v_66 (+ ?v_98 (+ ?v_5 (+ ?v_59 (+ ?v_47 (+ ?v_7 (+ ?v_8 (+ ?v_50 (+ ?v_105 (+ ?v_106 (+ ?v_110 (+ ?v_17 (+ ?v_75 (+ ?v_107 ?v_51)))))))))))))))))))))))))))) (- 1)) (<= (+ ?v_35 (+ ?v_13 (+ ?v_108 (+ (* 2 x12) (+ ?v_71 (+ ?v_36 (+ ?v_21 (+ ?v_23 (+ ?v_14 (+ ?v_59 (+ ?v_28 (+ ?v_109 (+ ?v_110 (+ ?v_66 (+ ?v_98 (+ ?v_99 (+ ?v_17 (+ ?v_61 (+ ?v_33 (+ ?v_18 (+ ?v_101 (+ (* 1 x39) ?v_19)))))))))))))))))))))) 0) (<= (+ ?v_108 (+ ?v_54 (+ ?v_36 (+ ?v_111 (+ ?v_39 (+ ?v_42 (+ ?v_37 (+ ?v_21 (+ ?v_38 (+ ?v_96 (+ ?v_12 (+ ?v_97 (+ ?v_55 (+ ?v_112 (+ ?v_16 (+ ?v_17 (+ ?v_30 (+ ?v_47 (+ ?v_7 (+ ?v_74 (+ ?v_50 (+ ?v_4 (+ ?v_101 (+ ?v_60 (+ (* 1 x7) ?v_34))))))))))))))))))))))))) 1) (<= (+ ?v_113 (+ ?v_114 (+ ?v_41 (+ ?v_84 (+ ?v_0 (+ ?v_36 (+ ?v_42 (+ ?v_88 (+ ?v_37 (+ ?v_21 (+ ?v_22 (+ ?v_15 (+ ?v_23 (+ ?v_16 (+ ?v_26 (+ ?v_29 (+ ?v_115 (+ ?v_109 (+ ?v_57 (+ ?v_58 (+ ?v_6 (+ ?v_90 (+ ?v_74 (+ ?v_8 (+ ?v_116 ?v_60))))))))))))))))))))))))) 0) (<= (+ (* (- 3) x9) (+ ?v_69 (+ ?v_108 (+ ?v_79 (+ ?v_63 (+ ?v_36 (+ ?v_42 (+ ?v_88 (+ ?v_117 (+ ?v_27 (+ ?v_57 (+ ?v_22 (+ ?v_23 (+ ?v_5 (+ ?v_58 (+ ?v_107 (+ ?v_47 (+ ?v_50 (+ ?v_49 (+ ?v_90 (+ ?v_91 (+ ?v_68 (+ (* 2 x4) ?v_60))))))))))))))))))))))) 1) (<= (+ ?v_98 (+ ?v_0 (+ ?v_35 (+ ?v_42 (+ ?v_95 (+ (* (- 2) x35) (+ ?v_27 (+ ?v_87 (+ ?v_41 (+ ?v_22 (+ ?v_14 (+ ?v_16 (+ ?v_67 (+ ?v_26 (+ ?v_59 (+ ?v_3 (+ ?v_11 (+ ?v_104 (+ ?v_115 (+ ?v_49 (+ ?v_74 (+ ?v_60 ?v_75)))))))))))))))))))))) (- 1)) (<= (+ ?v_69 (+ ?v_13 (+ ?v_84 (+ ?v_79 (+ ?v_21 (+ ?v_63 (+ ?v_117 (+ ?v_67 (+ ?v_26 (+ ?v_30 (+ ?v_59 (+ ?v_85 (+ ?v_38 (+ ?v_83 (+ ?v_65 (+ ?v_23 (+ ?v_55 (+ ?v_44 (+ ?v_109 (+ ?v_86 (+ ?v_60 (+ ?v_18 (+ ?v_4 (+ ?v_75 (+ ?v_81 (+ ?v_118 ?v_78)))))))))))))))))))))))))) 0) (<= (+ (* (- 2) x7) (+ ?v_53 (+ ?v_102 (+ ?v_111 (+ ?v_13 (+ ?v_41 (+ ?v_36 (+ ?v_37 (+ ?v_14 (+ ?v_29 (+ ?v_59 (+ ?v_6 (+ ?v_85 (+ ?v_47 (+ ?v_93 (+ ?v_55 (+ ?v_56 (+ ?v_3 (+ ?v_18 (+ ?v_4 (+ ?v_75 (+ ?v_118 (+ ?v_68 (+ ?v_116 (+ (* 2 x3) ?v_119))))))))))))))))))))))))) 0) (<= (+ ?v_70 (+ ?v_84 (+ ?v_54 (+ ?v_36 (+ ?v_111 (+ ?v_72 (+ ?v_85 (+ ?v_12 (+ ?v_120 (+ ?v_55 (+ ?v_26 (+ ?v_29 (+ ?v_47 (+ ?v_6 (+ ?v_56 (+ ?v_50 (+ ?v_61 (+ ?v_33 (+ ?v_18 (+ ?v_118 (+ ?v_68 (+ ?v_116 (* 2 x20))))))))))))))))))))))) (- 1)))))))
(check-sat)
(exit)
